100 4950
1 2 1
1 3 2
1 4 1
1 5 5
1 6 3
1 7 5
1 8 2
1 9 1
1 10 4
1 11 2
1 12 1
1 13 2
1 14 5
1 15 4
1 16 3
1 17 5
1 18 1
1 19 3
1 20 4
1 21 3
1 22 3
1 23 4
1 24 4
1 25 1
1 26 1
1 27 3
1 28 1
1 29 4
1 30 1
1 31 5
1 32 3
1 33 5
1 34 5
1 35 2
1 36 5
1 37 5
1 38 5
1 39 4
1 40 1
1 41 4
1 42 4
1 43 2
1 44 3
1 45 4
1 46 4
1 47 1
1 48 4
1 49 4
1 50 3
1 51 2
1 52 3
1 53 1
1 54 2
1 55 1
1 56 1
1 57 5
1 58 5
1 59 1
1 60 3
1 61 5
1 62 1
1 63 2
1 64 1
1 65 5
1 66 4
1 67 3
1 68 3
1 69 2
1 70 2
1 71 4
1 72 5
1 73 2
1 74 3
1 75 2
1 76 4
1 77 3
1 78 1
1 79 5
1 80 3
1 81 4
1 82 4
1 83 5
1 84 3
1 85 1
1 86 1
1 87 4
1 88 4
1 89 4
1 90 4
1 91 5
1 92 1
1 93 4
1 94 4
1 95 4
1 96 3
1 97 3
1 98 4
1 99 4
1 100 5
2 3 1
2 4 4
2 5 1
2 6 1
2 7 2
2 8 2
2 9 2
2 10 3
2 11 2
2 12 3
2 13 4
2 14 2
2 15 3
2 16 5
2 17 5
2 18 3
2 19 4
2 20 4
2 21 5
2 22 5
2 23 3
2 24 1
2 25 1
2 26 2
2 27 3
2 28 2
2 29 2
2 30 2
2 31 1
2 32 4
2 33 2
2 34 1
2 35 3
2 36 1
2 37 4
2 38 4
2 39 5
2 40 5
2 41 4
2 42 1
2 43 4
2 44 4
2 45 2
2 46 5
2 47 3
2 48 5
2 49 2
2 50 3
2 51 1
2 52 1
2 53 1
2 54 1
2 55 1
2 56 4
2 57 3
2 58 2
2 59 2
2 60 3
2 61 1
2 62 5
2 63 1
2 64 4
2 65 5
2 66 1
2 67 5
2 68 4
2 69 2
2 70 2
2 71 3
2 72 1
2 73 4
2 74 2
2 75 1
2 76 3
2 77 1
2 78 2
2 79 5
2 80 5
2 81 2
2 82 1
2 83 1
2 84 4
2 85 2
2 86 4
2 87 5
2 88 4
2 89 3
2 90 3
2 91 2
2 92 4
2 93 4
2 94 4
2 95 5
2 96 3
2 97 5
2 98 3
2 99 4
2 100 1
3 4 2
3 5 3
3 6 5
3 7 3
3 8 5
3 9 1
3 10 4
3 11 1
3 12 1
3 13 2
3 14 4
3 15 1
3 16 3
3 17 4
3 18 2
3 19 5
3 20 4
3 21 1
3 22 5
3 23 3
3 24 4
3 25 2
3 26 2
3 27 5
3 28 2
3 29 4
3 30 5
3 31 3
3 32 3
3 33 2
3 34 3
3 35 5
3 36 2
3 37 3
3 38 4
3 39 4
3 40 5
3 41 2
3 42 4
3 43 1
3 44 2
3 45 2
3 46 1
3 47 3
3 48 2
3 49 3
3 50 4
3 51 2
3 52 3
3 53 2
3 54 2
3 55 3
3 56 3
3 57 2
3 58 5
3 59 5
3 60 1
3 61 5
3 62 4
3 63 5
3 64 5
3 65 3
3 66 5
3 67 5
3 68 5
3 69 5
3 70 5
3 71 5
3 72 4
3 73 1
3 74 1
3 75 3
3 76 5
3 77 3
3 78 1
3 79 1
3 80 1
3 81 1
3 82 4
3 83 1
3 84 4
3 85 1
3 86 3
3 87 5
3 88 5
3 89 2
3 90 1
3 91 1
3 92 3
3 93 1
3 94 4
3 95 1
3 96 1
3 97 2
3 98 5
3 99 4
3 100 3
4 5 3
4 6 4
4 7 1
4 8 2
4 9 4
4 10 1
4 11 1
4 12 4
4 13 5
4 14 1
4 15 1
4 16 2
4 17 5
4 18 3
4 19 4
4 20 1
4 21 4
4 22 1
4 23 5
4 24 3
4 25 3
4 26 4
4 27 2
4 28 4
4 29 5
4 30 4
4 31 5
4 32 5
4 33 1
4 34 1
4 35 5
4 36 1
4 37 4
4 38 3
4 39 2
4 40 3
4 41 4
4 42 2
4 43 3
4 44 4
4 45 5
4 46 5
4 47 5
4 48 5
4 49 1
4 50 4
4 51 4
4 52 2
4 53 4
4 54 5
4 55 5
4 56 2
4 57 4
4 58 3
4 59 1
4 60 2
4 61 3
4 62 1
4 63 4
4 64 4
4 65 5
4 66 5
4 67 1
4 68 2
4 69 2
4 70 3
4 71 5
4 72 2
4 73 2
4 74 3
4 75 1
4 76 3
4 77 3
4 78 4
4 79 3
4 80 4
4 81 4
4 82 4
4 83 3
4 84 4
4 85 3
4 86 2
4 87 5
4 88 5
4 89 2
4 90 3
4 91 5
4 92 3
4 93 3
4 94 3
4 95 4
4 96 4
4 97 5
4 98 2
4 99 3
4 100 2
5 6 3
5 7 2
5 8 2
5 9 3
5 10 4
5 11 3
5 12 5
5 13 5
5 14 3
5 15 4
5 16 2
5 17 2
5 18 5
5 19 4
5 20 5
5 21 2
5 22 4
5 23 4
5 24 4
5 25 5
5 26 3
5 27 5
5 28 1
5 29 4
5 30 1
5 31 5
5 32 3
5 33 5
5 34 3
5 35 4
5 36 4
5 37 3
5 38 5
5 39 3
5 40 5
5 41 3
5 42 3
5 43 5
5 44 5
5 45 3
5 46 5
5 47 2
5 48 3
5 49 3
5 50 4
5 51 1
5 52 5
5 53 2
5 54 4
5 55 5
5 56 5
5 57 5
5 58 1
5 59 4
5 60 1
5 61 2
5 62 3
5 63 4
5 64 1
5 65 2
5 66 5
5 67 3
5 68 5
5 69 4
5 70 4
5 71 4
5 72 3
5 73 3
5 74 2
5 75 4
5 76 3
5 77 2
5 78 2
5 79 1
5 80 5
5 81 2
5 82 3
5 83 5
5 84 1
5 85 3
5 86 1
5 87 3
5 88 4
5 89 5
5 90 1
5 91 4
5 92 3
5 93 1
5 94 5
5 95 4
5 96 2
5 97 5
5 98 5
5 99 4
5 100 2
6 7 4
6 8 4
6 9 3
6 10 2
6 11 1
6 12 5
6 13 3
6 14 1
6 15 4
6 16 3
6 17 3
6 18 2
6 19 1
6 20 1
6 21 2
6 22 5
6 23 5
6 24 5
6 25 1
6 26 1
6 27 3
6 28 3
6 29 3
6 30 5
6 31 2
6 32 4
6 33 1
6 34 1
6 35 2
6 36 3
6 37 5
6 38 4
6 39 3
6 40 1
6 41 4
6 42 1
6 43 4
6 44 1
6 45 4
6 46 4
6 47 5
6 48 4
6 49 1
6 50 2
6 51 3
6 52 3
6 53 1
6 54 5
6 55 3
6 56 1
6 57 3
6 58 2
6 59 3
6 60 5
6 61 5
6 62 1
6 63 5
6 64 3
6 65 2
6 66 4
6 67 5
6 68 5
6 69 5
6 70 5
6 71 4
6 72 4
6 73 1
6 74 2
6 75 4
6 76 5
6 77 4
6 78 4
6 79 1
6 80 2
6 81 5
6 82 1
6 83 3
6 84 2
6 85 5
6 86 5
6 87 3
6 88 2
6 89 4
6 90 1
6 91 2
6 92 2
6 93 3
6 94 4
6 95 2
6 96 4
6 97 2
6 98 1
6 99 5
6 100 3
7 8 1
7 9 2
7 10 5
7 11 4
7 12 1
7 13 5
7 14 4
7 15 3
7 16 1
7 17 3
7 18 2
7 19 1
7 20 4
7 21 1
7 22 2
7 23 2
7 24 3
7 25 5
7 26 1
7 27 5
7 28 3
7 29 2
7 30 3
7 31 4
7 32 2
7 33 4
7 34 1
7 35 5
7 36 2
7 37 2
7 38 4
7 39 4
7 40 4
7 41 2
7 42 4
7 43 1
7 44 5
7 45 5
7 46 5
7 47 1
7 48 5
7 49 1
7 50 1
7 51 1
7 52 3
7 53 2
7 54 4
7 55 4
7 56 1
7 57 3
7 58 2
7 59 4
7 60 5
7 61 3
7 62 3
7 63 2
7 64 4
7 65 4
7 66 5
7 67 4
7 68 3
7 69 1
7 70 4
7 71 1
7 72 1
7 73 1
7 74 3
7 75 2
7 76 2
7 77 5
7 78 4
7 79 4
7 80 5
7 81 3
7 82 4
7 83 3
7 84 1
7 85 4
7 86 3
7 87 1
7 88 1
7 89 4
7 90 3
7 91 1
7 92 3
7 93 5
7 94 4
7 95 3
7 96 1
7 97 1
7 98 3
7 99 3
7 100 5
8 9 4
8 10 3
8 11 2
8 12 2
8 13 3
8 14 2
8 15 1
8 16 2
8 17 4
8 18 2
8 19 3
8 20 4
8 21 4
8 22 3
8 23 1
8 24 4
8 25 2
8 26 2
8 27 1
8 28 2
8 29 2
8 30 2
8 31 3
8 32 1
8 33 1
8 34 4
8 35 5
8 36 3
8 37 5
8 38 1
8 39 4
8 40 5
8 41 4
8 42 2
8 43 3
8 44 5
8 45 3
8 46 5
8 47 3
8 48 5
8 49 1
8 50 3
8 51 3
8 52 4
8 53 2
8 54 5
8 55 3
8 56 5
8 57 4
8 58 4
8 59 5
8 60 3
8 61 1
8 62 1
8 63 1
8 64 1
8 65 2
8 66 3
8 67 2
8 68 1
8 69 4
8 70 5
8 71 5
8 72 1
8 73 5
8 74 3
8 75 2
8 76 3
8 77 2
8 78 2
8 79 1
8 80 1
8 81 1
8 82 2
8 83 3
8 84 3
8 85 3
8 86 3
8 87 4
8 88 3
8 89 4
8 90 1
8 91 5
8 92 5
8 93 3
8 94 4
8 95 2
8 96 3
8 97 2
8 98 4
8 99 4
8 100 5
9 10 2
9 11 1
9 12 2
9 13 1
9 14 4
9 15 3
9 16 5
9 17 4
9 18 1
9 19 5
9 20 2
9 21 1
9 22 4
9 23 4
9 24 5
9 25 1
9 26 1
9 27 2
9 28 3
9 29 3
9 30 3
9 31 2
9 32 2
9 33 2
9 34 4
9 35 3
9 36 5
9 37 4
9 38 1
9 39 1
9 40 3
9 41 3
9 42 3
9 43 1
9 44 1
9 45 4
9 46 2
9 47 3
9 48 5
9 49 1
9 50 4
9 51 2
9 52 4
9 53 5
9 54 2
9 55 3
9 56 1
9 57 2
9 58 3
9 59 1
9 60 2
9 61 3
9 62 5
9 63 5
9 64 5
9 65 3
9 66 2
9 67 3
9 68 1
9 69 5
9 70 2
9 71 3
9 72 4
9 73 3
9 74 5
9 75 3
9 76 1
9 77 2
9 78 2
9 79 3
9 80 2
9 81 4
9 82 3
9 83 5
9 84 3
9 85 1
9 86 5
9 87 4
9 88 2
9 89 1
9 90 5
9 91 1
9 92 2
9 93 2
9 94 1
9 95 1
9 96 5
9 97 1
9 98 3
9 99 1
9 100 4
10 11 2
10 12 2
10 13 1
10 14 1
10 15 5
10 16 5
10 17 4
10 18 1
10 19 1
10 20 5
10 21 4
10 22 4
10 23 5
10 24 1
10 25 1
10 26 4
10 27 1
10 28 3
10 29 2
10 30 4
10 31 3
10 32 2
10 33 4
10 34 3
10 35 4
10 36 5
10 37 3
10 38 1
10 39 5
10 40 5
10 41 1
10 42 2
10 43 2
10 44 1
10 45 3
10 46 2
10 47 1
10 48 2
10 49 3
10 50 5
10 51 5
10 52 1
10 53 1
10 54 1
10 55 2
10 56 4
10 57 1
10 58 4
10 59 3
10 60 1
10 61 3
10 62 1
10 63 5
10 64 1
10 65 1
10 66 4
10 67 5
10 68 4
10 69 4
10 70 2
10 71 1
10 72 4
10 73 4
10 74 1
10 75 4
10 76 3
10 77 4
10 78 4
10 79 1
10 80 4
10 81 3
10 82 1
10 83 3
10 84 5
10 85 5
10 86 3
10 87 1
10 88 5
10 89 4
10 90 3
10 91 1
10 92 4
10 93 2
10 94 4
10 95 1
10 96 2
10 97 5
10 98 3
10 99 5
10 100 2
11 12 5
11 13 1
11 14 1
11 15 4
11 16 1
11 17 1
11 18 2
11 19 2
11 20 2
11 21 5
11 22 5
11 23 3
11 24 4
11 25 1
11 26 5
11 27 2
11 28 2
11 29 4
11 30 1
11 31 4
11 32 3
11 33 1
11 34 4
11 35 5
11 36 2
11 37 2
11 38 4
11 39 5
11 40 3
11 41 5
11 42 5
11 43 3
11 44 3
11 45 4
11 46 3
11 47 2
11 48 3
11 49 2
11 50 2
11 51 3
11 52 4
11 53 3
11 54 4
11 55 4
11 56 3
11 57 4
11 58 2
11 59 4
11 60 4
11 61 3
11 62 5
11 63 5
11 64 5
11 65 1
11 66 4
11 67 5
11 68 1
11 69 4
11 70 3
11 71 1
11 72 1
11 73 4
11 74 1
11 75 2
11 76 3
11 77 5
11 78 4
11 79 3
11 80 5
11 81 2
11 82 3
11 83 2
11 84 3
11 85 5
11 86 1
11 87 2
11 88 1
11 89 5
11 90 3
11 91 3
11 92 4
11 93 1
11 94 5
11 95 5
11 96 4
11 97 4
11 98 3
11 99 2
11 100 1
12 13 5
12 14 5
12 15 3
12 16 4
12 17 2
12 18 4
12 19 4
12 20 2
12 21 1
12 22 3
12 23 5
12 24 5
12 25 2
12 26 3
12 27 2
12 28 3
12 29 4
12 30 1
12 31 2
12 32 2
12 33 5
12 34 3
12 35 5
12 36 1
12 37 3
12 38 4
12 39 5
12 40 5
12 41 4
12 42 1
12 43 3
12 44 2
12 45 4
12 46 4
12 47 4
12 48 3
12 49 3
12 50 4
12 51 3
12 52 1
12 53 4
12 54 5
12 55 3
12 56 5
12 57 3
12 58 5
12 59 5
12 60 1
12 61 4
12 62 1
12 63 5
12 64 1
12 65 1
12 66 3
12 67 3
12 68 4
12 69 4
12 70 2
12 71 5
12 72 1
12 73 4
12 74 2
12 75 4
12 76 1
12 77 1
12 78 2
12 79 3
12 80 2
12 81 3
12 82 3
12 83 5
12 84 1
12 85 4
12 86 5
12 87 5
12 88 2
12 89 1
12 90 1
12 91 4
12 92 1
12 93 2
12 94 5
12 95 2
12 96 5
12 97 1
12 98 3
12 99 3
12 100 2
13 14 5
13 15 3
13 16 5
13 17 2
13 18 1
13 19 5
13 20 2
13 21 2
13 22 1
13 23 5
13 24 3
13 25 5
13 26 3
13 27 2
13 28 3
13 29 2
13 30 2
13 31 5
13 32 5
13 33 4
13 34 4
13 35 1
13 36 3
13 37 5
13 38 2
13 39 3
13 40 3
13 41 3
13 42 5
13 43 3
13 44 1
13 45 3
13 46 2
13 47 1
13 48 4
13 49 5
13 50 4
13 51 4
13 52 1
13 53 5
13 54 3
13 55 1
13 56 2
13 57 1
13 58 4
13 59 5
13 60 2
13 61 2
13 62 5
13 63 5
13 64 4
13 65 2
13 66 4
13 67 5
13 68 3
13 69 3
13 70 4
13 71 1
13 72 5
13 73 2
13 74 2
13 75 3
13 76 1
13 77 1
13 78 4
13 79 1
13 80 3
13 81 1
13 82 3
13 83 2
13 84 4
13 85 2
13 86 5
13 87 4
13 88 2
13 89 2
13 90 5
13 91 2
13 92 3
13 93 3
13 94 2
13 95 1
13 96 3
13 97 2
13 98 1
13 99 4
13 100 5
14 15 3
14 16 3
14 17 2
14 18 4
14 19 5
14 20 5
14 21 3
14 22 2
14 23 3
14 24 2
14 25 5
14 26 1
14 27 4
14 28 5
14 29 4
14 30 4
14 31 1
14 32 4
14 33 5
14 34 2
14 35 3
14 36 4
14 37 4
14 38 3
14 39 5
14 40 3
14 41 1
14 42 3
14 43 4
14 44 4
14 45 5
14 46 2
14 47 3
14 48 3
14 49 1
14 50 4
14 51 1
14 52 4
14 53 4
14 54 2
14 55 4
14 56 2
14 57 1
14 58 3
14 59 4
14 60 5
14 61 3
14 62 4
14 63 4
14 64 4
14 65 4
14 66 5
14 67 5
14 68 1
14 69 1
14 70 1
14 71 5
14 72 3
14 73 3
14 74 5
14 75 4
14 76 5
14 77 4
14 78 2
14 79 4
14 80 5
14 81 2
14 82 3
14 83 1
14 84 1
14 85 2
14 86 4
14 87 4
14 88 2
14 89 2
14 90 3
14 91 3
14 92 4
14 93 1
14 94 5
14 95 3
14 96 1
14 97 5
14 98 4
14 99 3
14 100 5
15 16 1
15 17 2
15 18 5
15 19 1
15 20 5
15 21 2
15 22 3
15 23 1
15 24 3
15 25 3
15 26 3
15 27 5
15 28 1
15 29 1
15 30 3
15 31 3
15 32 5
15 33 2
15 34 4
15 35 2
15 36 4
15 37 5
15 38 3
15 39 3
15 40 3
15 41 5
15 42 3
15 43 3
15 44 2
15 45 3
15 46 4
15 47 2
15 48 3
15 49 2
15 50 3
15 51 2
15 52 1
15 53 4
15 54 3
15 55 3
15 56 3
15 57 3
15 58 5
15 59 1
15 60 1
15 61 1
15 62 3
15 63 2
15 64 4
15 65 3
15 66 1
15 67 1
15 68 4
15 69 4
15 70 5
15 71 4
15 72 5
15 73 3
15 74 2
15 75 2
15 76 4
15 77 1
15 78 1
15 79 2
15 80 2
15 81 4
15 82 5
15 83 1
15 84 4
15 85 4
15 86 3
15 87 3
15 88 2
15 89 2
15 90 4
15 91 3
15 92 4
15 93 1
15 94 4
15 95 1
15 96 2
15 97 5
15 98 5
15 99 4
15 100 3
16 17 1
16 18 2
16 19 1
16 20 2
16 21 2
16 22 1
16 23 1
16 24 2
16 25 3
16 26 1
16 27 2
16 28 2
16 29 1
16 30 1
16 31 1
16 32 4
16 33 4
16 34 5
16 35 2
16 36 1
16 37 1
16 38 3
16 39 4
16 40 4
16 41 1
16 42 3
16 43 1
16 44 1
16 45 4
16 46 5
16 47 1
16 48 2
16 49 4
16 50 4
16 51 4
16 52 5
16 53 4
16 54 3
16 55 1
16 56 4
16 57 1
16 58 2
16 59 5
16 60 1
16 61 3
16 62 3
16 63 1
16 64 5
16 65 4
16 66 2
16 67 3
16 68 2
16 69 4
16 70 3
16 71 2
16 72 1
16 73 2
16 74 1
16 75 2
16 76 2
16 77 2
16 78 4
16 79 2
16 80 2
16 81 3
16 82 1
16 83 3
16 84 1
16 85 3
16 86 2
16 87 1
16 88 2
16 89 4
16 90 3
16 91 4
16 92 2
16 93 2
16 94 5
16 95 1
16 96 3
16 97 2
16 98 2
16 99 4
16 100 2
17 18 4
17 19 1
17 20 5
17 21 3
17 22 5
17 23 3
17 24 3
17 25 5
17 26 4
17 27 2
17 28 3
17 29 1
17 30 3
17 31 3
17 32 2
17 33 5
17 34 1
17 35 1
17 36 5
17 37 5
17 38 4
17 39 3
17 40 5
17 41 2
17 42 1
17 43 4
17 44 1
17 45 1
17 46 1
17 47 1
17 48 2
17 49 4
17 50 1
17 51 5
17 52 5
17 53 4
17 54 4
17 55 5
17 56 5
17 57 4
17 58 2
17 59 1
17 60 4
17 61 3
17 62 5
17 63 4
17 64 2
17 65 1
17 66 2
17 67 4
17 68 1
17 69 3
17 70 5
17 71 4
17 72 2
17 73 4
17 74 4
17 75 2
17 76 4
17 77 1
17 78 1
17 79 2
17 80 5
17 81 4
17 82 4
17 83 5
17 84 2
17 85 3
17 86 1
17 87 2
17 88 2
17 89 5
17 90 5
17 91 1
17 92 2
17 93 2
17 94 3
17 95 1
17 96 5
17 97 3
17 98 2
17 99 3
17 100 2
18 19 2
18 20 5
18 21 4
18 22 1
18 23 5
18 24 1
18 25 5
18 26 2
18 27 4
18 28 3
18 29 5
18 30 2
18 31 1
18 32 5
18 33 2
18 34 4
18 35 1
18 36 1
18 37 5
18 38 4
18 39 4
18 40 4
18 41 5
18 42 1
18 43 4
18 44 3
18 45 5
18 46 5
18 47 5
18 48 2
18 49 1
18 50 2
18 51 5
18 52 2
18 53 1
18 54 2
18 55 2
18 56 3
18 57 4
18 58 2
18 59 4
18 60 1
18 61 3
18 62 4
18 63 5
18 64 4
18 65 4
18 66 2
18 67 2
18 68 1
18 69 3
18 70 2
18 71 5
18 72 3
18 73 1
18 74 5
18 75 5
18 76 5
18 77 2
18 78 3
18 79 4
18 80 1
18 81 2
18 82 4
18 83 4
18 84 1
18 85 3
18 86 4
18 87 1
18 88 3
18 89 1
18 90 2
18 91 4
18 92 4
18 93 4
18 94 2
18 95 1
18 96 3
18 97 5
18 98 1
18 99 4
18 100 5
19 20 1
19 21 4
19 22 4
19 23 4
19 24 2
19 25 2
19 26 4
19 27 4
19 28 1
19 29 3
19 30 1
19 31 2
19 32 2
19 33 1
19 34 1
19 35 5
19 36 2
19 37 1
19 38 2
19 39 3
19 40 5
19 41 1
19 42 3
19 43 5
19 44 4
19 45 4
19 46 4
19 47 1
19 48 1
19 49 5
19 50 3
19 51 4
19 52 4
19 53 3
19 54 5
19 55 1
19 56 4
19 57 4
19 58 2
19 59 2
19 60 1
19 61 2
19 62 2
19 63 2
19 64 5
19 65 1
19 66 4
19 67 3
19 68 2
19 69 3
19 70 4
19 71 5
19 72 3
19 73 5
19 74 4
19 75 2
19 76 3
19 77 3
19 78 3
19 79 3
19 80 1
19 81 1
19 82 2
19 83 2
19 84 5
19 85 1
19 86 2
19 87 5
19 88 4
19 89 1
19 90 3
19 91 1
19 92 3
19 93 4
19 94 2
19 95 3
19 96 4
19 97 1
19 98 2
19 99 4
19 100 4
20 21 4
20 22 1
20 23 4
20 24 4
20 25 3
20 26 1
20 27 3
20 28 1
20 29 1
20 30 5
20 31 1
20 32 3
20 33 5
20 34 2
20 35 3
20 36 2
20 37 1
20 38 5
20 39 3
20 40 2
20 41 1
20 42 5
20 43 3
20 44 3
20 45 4
20 46 4
20 47 5
20 48 5
20 49 3
20 50 2
20 51 2
20 52 3
20 53 1
20 54 3
20 55 5
20 56 2
20 57 4
20 58 1
20 59 3
20 60 1
20 61 1
20 62 1
20 63 4
20 64 1
20 65 4
20 66 3
20 67 4
20 68 3
20 69 3
20 70 1
20 71 4
20 72 2
20 73 1
20 74 4
20 75 3
20 76 3
20 77 2
20 78 3
20 79 5
20 80 2
20 81 3
20 82 5
20 83 4
20 84 1
20 85 2
20 86 5
20 87 5
20 88 2
20 89 5
20 90 2
20 91 4
20 92 5
20 93 2
20 94 5
20 95 1
20 96 3
20 97 3
20 98 1
20 99 5
20 100 1
21 22 5
21 23 4
21 24 2
21 25 3
21 26 3
21 27 2
21 28 1
21 29 1
21 30 5
21 31 4
21 32 1
21 33 5
21 34 5
21 35 4
21 36 3
21 37 2
21 38 5
21 39 4
21 40 3
21 41 3
21 42 3
21 43 3
21 44 3
21 45 4
21 46 3
21 47 2
21 48 1
21 49 3
21 50 2
21 51 1
21 52 3
21 53 5
21 54 5
21 55 2
21 56 4
21 57 2
21 58 1
21 59 2
21 60 2
21 61 4
21 62 4
21 63 4
21 64 5
21 65 5
21 66 1
21 67 2
21 68 4
21 69 3
21 70 1
21 71 2
21 72 2
21 73 4
21 74 1
21 75 5
21 76 5
21 77 4
21 78 5
21 79 1
21 80 3
21 81 5
21 82 4
21 83 1
21 84 3
21 85 1
21 86 3
21 87 1
21 88 1
21 89 1
21 90 2
21 91 2
21 92 3
21 93 1
21 94 5
21 95 5
21 96 3
21 97 4
21 98 1
21 99 2
21 100 1
22 23 2
22 24 4
22 25 2
22 26 3
22 27 2
22 28 4
22 29 5
22 30 4
22 31 2
22 32 4
22 33 3
22 34 2
22 35 4
22 36 2
22 37 1
22 38 2
22 39 5
22 40 2
22 41 5
22 42 4
22 43 4
22 44 4
22 45 5
22 46 1
22 47 5
22 48 5
22 49 5
22 50 4
22 51 4
22 52 1
22 53 2
22 54 1
22 55 1
22 56 3
22 57 5
22 58 5
22 59 3
22 60 4
22 61 4
22 62 1
22 63 3
22 64 5
22 65 4
22 66 3
22 67 1
22 68 5
22 69 1
22 70 2
22 71 3
22 72 1
22 73 4
22 74 1
22 75 1
22 76 4
22 77 2
22 78 1
22 79 1
22 80 5
22 81 4
22 82 4
22 83 4
22 84 5
22 85 5
22 86 3
22 87 1
22 88 4
22 89 1
22 90 2
22 91 2
22 92 2
22 93 3
22 94 2
22 95 2
22 96 4
22 97 5
22 98 5
22 99 4
22 100 4
23 24 4
23 25 1
23 26 2
23 27 2
23 28 1
23 29 1
23 30 1
23 31 2
23 32 2
23 33 1
23 34 1
23 35 1
23 36 2
23 37 3
23 38 4
23 39 4
23 40 2
23 41 4
23 42 2
23 43 1
23 44 2
23 45 5
23 46 4
23 47 3
23 48 1
23 49 4
23 50 1
23 51 3
23 52 3
23 53 5
23 54 3
23 55 1
23 56 1
23 57 5
23 58 3
23 59 1
23 60 1
23 61 1
23 62 4
23 63 2
23 64 4
23 65 4
23 66 5
23 67 4
23 68 1
23 69 4
23 70 5
23 71 1
23 72 4
23 73 5
23 74 2
23 75 5
23 76 2
23 77 4
23 78 1
23 79 5
23 80 3
23 81 4
23 82 4
23 83 2
23 84 2
23 85 2
23 86 1
23 87 3
23 88 1
23 89 5
23 90 1
23 91 1
23 92 4
23 93 3
23 94 4
23 95 5
23 96 4
23 97 5
23 98 1
23 99 3
23 100 2
24 25 4
24 26 2
24 27 3
24 28 5
24 29 3
24 30 3
24 31 5
24 32 3
24 33 4
24 34 3
24 35 3
24 36 2
24 37 3
24 38 2
24 39 2
24 40 1
24 41 4
24 42 3
24 43 3
24 44 5
24 45 4
24 46 5
24 47 2
24 48 3
24 49 4
24 50 5
24 51 5
24 52 5
24 53 5
24 54 2
24 55 2
24 56 5
24 57 3
24 58 4
24 59 2
24 60 5
24 61 4
24 62 5
24 63 1
24 64 2
24 65 4
24 66 1
24 67 1
24 68 3
24 69 1
24 70 2
24 71 5
24 72 5
24 73 5
24 74 4
24 75 3
24 76 5
24 77 3
24 78 3
24 79 3
24 80 5
24 81 5
24 82 4
24 83 1
24 84 2
24 85 2
24 86 5
24 87 1
24 88 5
24 89 3
24 90 5
24 91 2
24 92 1
24 93 4
24 94 5
24 95 5
24 96 4
24 97 1
24 98 5
24 99 2
24 100 5
25 26 1
25 27 1
25 28 3
25 29 5
25 30 2
25 31 2
25 32 3
25 33 4
25 34 1
25 35 2
25 36 2
25 37 2
25 38 1
25 39 3
25 40 3
25 41 4
25 42 3
25 43 3
25 44 3
25 45 1
25 46 1
25 47 2
25 48 1
25 49 2
25 50 3
25 51 4
25 52 4
25 53 1
25 54 3
25 55 4
25 56 2
25 57 5
25 58 1
25 59 3
25 60 5
25 61 4
25 62 4
25 63 5
25 64 2
25 65 5
25 66 2
25 67 2
25 68 5
25 69 3
25 70 4
25 71 1
25 72 3
25 73 5
25 74 2
25 75 2
25 76 3
25 77 5
25 78 3
25 79 3
25 80 3
25 81 4
25 82 2
25 83 4
25 84 5
25 85 2
25 86 1
25 87 3
25 88 3
25 89 2
25 90 5
25 91 5
25 92 3
25 93 1
25 94 3
25 95 4
25 96 5
25 97 4
25 98 1
25 99 2
25 100 5
26 27 5
26 28 4
26 29 4
26 30 2
26 31 4
26 32 5
26 33 2
26 34 3
26 35 2
26 36 2
26 37 2
26 38 5
26 39 1
26 40 5
26 41 5
26 42 3
26 43 4
26 44 2
26 45 5
26 46 5
26 47 3
26 48 5
26 49 1
26 50 2
26 51 2
26 52 2
26 53 5
26 54 3
26 55 4
26 56 1
26 57 3
26 58 1
26 59 3
26 60 5
26 61 3
26 62 3
26 63 3
26 64 5
26 65 3
26 66 1
26 67 5
26 68 1
26 69 1
26 70 4
26 71 3
26 72 4
26 73 3
26 74 5
26 75 2
26 76 2
26 77 4
26 78 3
26 79 4
26 80 3
26 81 3
26 82 5
26 83 3
26 84 3
26 85 3
26 86 5
26 87 2
26 88 2
26 89 1
26 90 3
26 91 4
26 92 3
26 93 1
26 94 4
26 95 5
26 96 1
26 97 5
26 98 1
26 99 1
26 100 2
27 28 3
27 29 3
27 30 4
27 31 5
27 32 3
27 33 2
27 34 4
27 35 1
27 36 4
27 37 2
27 38 5
27 39 1
27 40 1
27 41 2
27 42 5
27 43 3
27 44 4
27 45 1
27 46 4
27 47 3
27 48 2
27 49 2
27 50 5
27 51 4
27 52 1
27 53 4
27 54 2
27 55 4
27 56 5
27 57 4
27 58 4
27 59 3
27 60 4
27 61 2
27 62 4
27 63 3
27 64 2
27 65 2
27 66 3
27 67 2
27 68 4
27 69 2
27 70 2
27 71 3
27 72 3
27 73 5
27 74 3
27 75 1
27 76 3
27 77 5
27 78 3
27 79 1
27 80 4
27 81 1
27 82 5
27 83 5
27 84 5
27 85 5
27 86 1
27 87 3
27 88 4
27 89 1
27 90 1
27 91 3
27 92 5
27 93 3
27 94 3
27 95 3
27 96 1
27 97 5
27 98 1
27 99 4
27 100 4
28 29 2
28 30 3
28 31 3
28 32 5
28 33 2
28 34 2
28 35 1
28 36 4
28 37 3
28 38 2
28 39 1
28 40 3
28 41 2
28 42 1
28 43 1
28 44 5
28 45 3
28 46 4
28 47 3
28 48 4
28 49 2
28 50 3
28 51 3
28 52 4
28 53 5
28 54 2
28 55 5
28 56 4
28 57 3
28 58 3
28 59 3
28 60 1
28 61 3
28 62 4
28 63 2
28 64 5
28 65 5
28 66 3
28 67 4
28 68 3
28 69 4
28 70 1
28 71 4
28 72 5
28 73 3
28 74 2
28 75 4
28 76 5
28 77 3
28 78 1
28 79 1
28 80 5
28 81 4
28 82 1
28 83 4
28 84 5
28 85 5
28 86 4
28 87 4
28 88 2
28 89 2
28 90 3
28 91 2
28 92 4
28 93 5
28 94 4
28 95 4
28 96 3
28 97 3
28 98 1
28 99 2
28 100 5
29 30 4
29 31 3
29 32 3
29 33 3
29 34 3
29 35 3
29 36 3
29 37 2
29 38 4
29 39 3
29 40 2
29 41 4
29 42 4
29 43 3
29 44 4
29 45 3
29 46 1
29 47 1
29 48 3
29 49 1
29 50 2
29 51 4
29 52 5
29 53 5
29 54 3
29 55 2
29 56 2
29 57 1
29 58 5
29 59 1
29 60 2
29 61 2
29 62 3
29 63 1
29 64 3
29 65 2
29 66 4
29 67 1
29 68 4
29 69 1
29 70 5
29 71 2
29 72 2
29 73 2
29 74 3
29 75 1
29 76 2
29 77 2
29 78 2
29 79 5
29 80 3
29 81 3
29 82 1
29 83 5
29 84 4
29 85 5
29 86 3
29 87 4
29 88 1
29 89 4
29 90 2
29 91 3
29 92 1
29 93 3
29 94 4
29 95 3
29 96 5
29 97 2
29 98 2
29 99 5
29 100 2
30 31 2
30 32 2
30 33 2
30 34 1
30 35 4
30 36 5
30 37 3
30 38 1
30 39 3
30 40 2
30 41 3
30 42 5
30 43 3
30 44 4
30 45 2
30 46 1
30 47 4
30 48 1
30 49 3
30 50 3
30 51 4
30 52 4
30 53 5
30 54 3
30 55 5
30 56 1
30 57 4
30 58 1
30 59 3
30 60 4
30 61 4
30 62 3
30 63 3
30 64 5
30 65 1
30 66 5
30 67 3
30 68 2
30 69 3
30 70 4
30 71 2
30 72 2
30 73 2
30 74 5
30 75 1
30 76 5
30 77 3
30 78 1
30 79 4
30 80 5
30 81 1
30 82 5
30 83 4
30 84 5
30 85 2
30 86 1
30 87 2
30 88 4
30 89 1
30 90 5
30 91 4
30 92 3
30 93 2
30 94 5
30 95 4
30 96 3
30 97 4
30 98 2
30 99 1
30 100 2
31 32 5
31 33 1
31 34 2
31 35 2
31 36 5
31 37 5
31 38 4
31 39 5
31 40 3
31 41 2
31 42 2
31 43 2
31 44 3
31 45 3
31 46 1
31 47 1
31 48 2
31 49 3
31 50 5
31 51 1
31 52 2
31 53 4
31 54 5
31 55 1
31 56 3
31 57 5
31 58 3
31 59 2
31 60 1
31 61 1
31 62 1
31 63 3
31 64 5
31 65 2
31 66 5
31 67 4
31 68 1
31 69 1
31 70 5
31 71 2
31 72 5
31 73 2
31 74 4
31 75 3
31 76 2
31 77 2
31 78 5
31 79 3
31 80 3
31 81 1
31 82 1
31 83 5
31 84 1
31 85 5
31 86 5
31 87 1
31 88 4
31 89 1
31 90 2
31 91 4
31 92 1
31 93 5
31 94 2
31 95 1
31 96 4
31 97 1
31 98 2
31 99 2
31 100 3
32 33 2
32 34 3
32 35 5
32 36 3
32 37 2
32 38 4
32 39 5
32 40 2
32 41 4
32 42 3
32 43 1
32 44 3
32 45 5
32 46 2
32 47 5
32 48 1
32 49 1
32 50 5
32 51 1
32 52 4
32 53 4
32 54 2
32 55 5
32 56 4
32 57 4
32 58 3
32 59 5
32 60 4
32 61 5
32 62 2
32 63 4
32 64 5
32 65 5
32 66 4
32 67 1
32 68 1
32 69 3
32 70 1
32 71 3
32 72 1
32 73 1
32 74 5
32 75 5
32 76 2
32 77 2
32 78 4
32 79 4
32 80 5
32 81 4
32 82 4
32 83 3
32 84 2
32 85 3
32 86 4
32 87 5
32 88 2
32 89 3
32 90 3
32 91 1
32 92 2
32 93 3
32 94 5
32 95 1
32 96 1
32 97 5
32 98 5
32 99 3
32 100 4
33 34 5
33 35 1
33 36 1
33 37 5
33 38 4
33 39 5
33 40 5
33 41 3
33 42 2
33 43 3
33 44 2
33 45 3
33 46 2
33 47 1
33 48 2
33 49 1
33 50 3
33 51 5
33 52 4
33 53 5
33 54 5
33 55 4
33 56 2
33 57 4
33 58 1
33 59 3
33 60 2
33 61 4
33 62 5
33 63 3
33 64 3
33 65 4
33 66 5
33 67 3
33 68 3
33 69 4
33 70 5
33 71 3
33 72 1
33 73 4
33 74 4
33 75 4
33 76 2
33 77 1
33 78 5
33 79 3
33 80 5
33 81 2
33 82 3
33 83 3
33 84 1
33 85 1
33 86 2
33 87 1
33 88 2
33 89 3
33 90 4
33 91 3
33 92 4
33 93 2
33 94 4
33 95 2
33 96 3
33 97 2
33 98 2
33 99 3
33 100 3
34 35 3
34 36 1
34 37 2
34 38 4
34 39 5
34 40 4
34 41 2
34 42 2
34 43 5
34 44 3
34 45 2
34 46 2
34 47 4
34 48 2
34 49 4
34 50 4
34 51 1
34 52 3
34 53 2
34 54 2
34 55 1
34 56 1
34 57 1
34 58 2
34 59 5
34 60 4
34 61 1
34 62 1
34 63 4
34 64 2
34 65 4
34 66 1
34 67 1
34 68 3
34 69 5
34 70 5
34 71 3
34 72 3
34 73 3
34 74 5
34 75 1
34 76 2
34 77 1
34 78 5
34 79 5
34 80 1
34 81 3
34 82 2
34 83 5
34 84 2
34 85 1
34 86 2
34 87 2
34 88 2
34 89 3
34 90 3
34 91 1
34 92 5
34 93 2
34 94 5
34 95 3
34 96 4
34 97 2
34 98 3
34 99 2
34 100 4
35 36 5
35 37 4
35 38 4
35 39 2
35 40 1
35 41 3
35 42 3
35 43 2
35 44 4
35 45 1
35 46 5
35 47 4
35 48 2
35 49 5
35 50 2
35 51 5
35 52 5
35 53 2
35 54 3
35 55 3
35 56 4
35 57 5
35 58 2
35 59 2
35 60 5
35 61 5
35 62 2
35 63 2
35 64 3
35 65 1
35 66 4
35 67 4
35 68 5
35 69 2
35 70 1
35 71 3
35 72 1
35 73 5
35 74 1
35 75 4
35 76 1
35 77 1
35 78 3
35 79 2
35 80 3
35 81 3
35 82 3
35 83 3
35 84 5
35 85 5
35 86 3
35 87 1
35 88 1
35 89 2
35 90 1
35 91 2
35 92 2
35 93 4
35 94 3
35 95 4
35 96 3
35 97 2
35 98 1
35 99 4
35 100 4
36 37 5
36 38 2
36 39 4
36 40 4
36 41 4
36 42 5
36 43 5
36 44 4
36 45 1
36 46 2
36 47 5
36 48 5
36 49 4
36 50 1
36 51 2
36 52 5
36 53 5
36 54 1
36 55 2
36 56 3
36 57 3
36 58 3
36 59 2
36 60 1
36 61 4
36 62 4
36 63 3
36 64 4
36 65 1
36 66 3
36 67 4
36 68 5
36 69 5
36 70 3
36 71 5
36 72 3
36 73 3
36 74 5
36 75 2
36 76 5
36 77 4
36 78 1
36 79 1
36 80 1
36 81 2
36 82 3
36 83 4
36 84 4
36 85 2
36 86 5
36 87 4
36 88 4
36 89 1
36 90 4
36 91 5
36 92 4
36 93 3
36 94 3
36 95 5
36 96 4
36 97 2
36 98 3
36 99 1
36 100 1
37 38 5
37 39 1
37 40 5
37 41 2
37 42 4
37 43 5
37 44 4
37 45 5
37 46 5
37 47 1
37 48 3
37 49 5
37 50 3
37 51 1
37 52 4
37 53 1
37 54 5
37 55 4
37 56 2
37 57 4
37 58 4
37 59 1
37 60 3
37 61 4
37 62 4
37 63 5
37 64 2
37 65 1
37 66 2
37 67 4
37 68 2
37 69 4
37 70 5
37 71 4
37 72 3
37 73 5
37 74 2
37 75 3
37 76 3
37 77 5
37 78 4
37 79 2
37 80 3
37 81 4
37 82 2
37 83 4
37 84 1
37 85 4
37 86 2
37 87 4
37 88 5
37 89 3
37 90 4
37 91 4
37 92 3
37 93 5
37 94 2
37 95 1
37 96 3
37 97 4
37 98 1
37 99 3
37 100 2
38 39 3
38 40 5
38 41 3
38 42 2
38 43 1
38 44 5
38 45 5
38 46 5
38 47 5
38 48 5
38 49 5
38 50 2
38 51 2
38 52 3
38 53 5
38 54 2
38 55 3
38 56 3
38 57 4
38 58 2
38 59 2
38 60 1
38 61 3
38 62 4
38 63 1
38 64 3
38 65 2
38 66 4
38 67 5
38 68 2
38 69 3
38 70 1
38 71 1
38 72 3
38 73 5
38 74 5
38 75 2
38 76 2
38 77 2
38 78 1
38 79 5
38 80 2
38 81 2
38 82 5
38 83 1
38 84 3
38 85 5
38 86 4
38 87 3
38 88 1
38 89 4
38 90 2
38 91 4
38 92 2
38 93 2
38 94 1
38 95 5
38 96 1
38 97 5
38 98 3
38 99 1
38 100 5
39 40 1
39 41 1
39 42 5
39 43 2
39 44 1
39 45 3
39 46 3
39 47 5
39 48 2
39 49 1
39 50 4
39 51 5
39 52 3
39 53 1
39 54 1
39 55 3
39 56 2
39 57 3
39 58 3
39 59 1
39 60 2
39 61 1
39 62 5
39 63 5
39 64 2
39 65 5
39 66 2
39 67 5
39 68 1
39 69 3
39 70 3
39 71 3
39 72 3
39 73 4
39 74 1
39 75 5
39 76 3
39 77 3
39 78 3
39 79 1
39 80 1
39 81 3
39 82 1
39 83 1
39 84 5
39 85 4
39 86 4
39 87 4
39 88 2
39 89 1
39 90 1
39 91 5
39 92 3
39 93 1
39 94 1
39 95 4
39 96 3
39 97 3
39 98 1
39 99 4
39 100 1
40 41 5
40 42 4
40 43 5
40 44 3
40 45 2
40 46 4
40 47 2
40 48 4
40 49 5
40 50 4
40 51 4
40 52 5
40 53 2
40 54 3
40 55 3
40 56 4
40 57 3
40 58 4
40 59 5
40 60 5
40 61 1
40 62 5
40 63 1
40 64 2
40 65 2
40 66 5
40 67 2
40 68 1
40 69 3
40 70 1
40 71 3
40 72 2
40 73 1
40 74 1
40 75 4
40 76 1
40 77 2
40 78 2
40 79 1
40 80 2
40 81 1
40 82 3
40 83 5
40 84 3
40 85 1
40 86 5
40 87 2
40 88 4
40 89 4
40 90 2
40 91 2
40 92 2
40 93 3
40 94 2
40 95 2
40 96 1
40 97 2
40 98 4
40 99 5
40 100 3
41 42 2
41 43 2
41 44 1
41 45 1
41 46 5
41 47 3
41 48 2
41 49 4
41 50 4
41 51 2
41 52 1
41 53 1
41 54 2
41 55 5
41 56 3
41 57 2
41 58 3
41 59 5
41 60 2
41 61 2
41 62 4
41 63 5
41 64 3
41 65 2
41 66 4
41 67 2
41 68 2
41 69 4
41 70 4
41 71 4
41 72 4
41 73 2
41 74 1
41 75 5
41 76 1
41 77 5
41 78 1
41 79 4
41 80 2
41 81 1
41 82 1
41 83 4
41 84 3
41 85 4
41 86 4
41 87 4
41 88 3
41 89 1
41 90 1
41 91 3
41 92 2
41 93 5
41 94 2
41 95 1
41 96 3
41 97 3
41 98 3
41 99 2
41 100 4
42 43 3
42 44 1
42 45 1
42 46 3
42 47 3
42 48 5
42 49 1
42 50 1
42 51 5
42 52 5
42 53 5
42 54 2
42 55 5
42 56 2
42 57 3
42 58 5
42 59 5
42 60 2
42 61 2
42 62 1
42 63 2
42 64 4
42 65 2
42 66 3
42 67 3
42 68 4
42 69 1
42 70 4
42 71 3
42 72 3
42 73 4
42 74 4
42 75 2
42 76 3
42 77 5
42 78 3
42 79 1
42 80 5
42 81 2
42 82 3
42 83 1
42 84 5
42 85 2
42 86 3
42 87 1
42 88 1
42 89 5
42 90 2
42 91 3
42 92 2
42 93 5
42 94 1
42 95 2
42 96 4
42 97 2
42 98 5
42 99 2
42 100 4
43 44 4
43 45 1
43 46 3
43 47 4
43 48 5
43 49 2
43 50 1
43 51 1
43 52 3
43 53 1
43 54 5
43 55 4
43 56 3
43 57 3
43 58 5
43 59 5
43 60 5
43 61 2
43 62 1
43 63 3
43 64 2
43 65 1
43 66 3
43 67 4
43 68 2
43 69 4
43 70 1
43 71 4
43 72 2
43 73 5
43 74 1
43 75 5
43 76 2
43 77 4
43 78 3
43 79 3
43 80 4
43 81 4
43 82 4
43 83 4
43 84 4
43 85 5
43 86 5
43 87 4
43 88 4
43 89 3
43 90 3
43 91 1
43 92 1
43 93 5
43 94 5
43 95 5
43 96 1
43 97 5
43 98 5
43 99 5
43 100 4
44 45 3
44 46 3
44 47 5
44 48 3
44 49 2
44 50 3
44 51 1
44 52 3
44 53 3
44 54 4
44 55 1
44 56 1
44 57 3
44 58 4
44 59 5
44 60 3
44 61 1
44 62 2
44 63 4
44 64 5
44 65 3
44 66 4
44 67 2
44 68 3
44 69 1
44 70 4
44 71 1
44 72 2
44 73 1
44 74 1
44 75 1
44 76 2
44 77 3
44 78 4
44 79 1
44 80 4
44 81 1
44 82 1
44 83 1
44 84 2
44 85 5
44 86 5
44 87 1
44 88 1
44 89 4
44 90 3
44 91 4
44 92 3
44 93 4
44 94 3
44 95 4
44 96 4
44 97 2
44 98 2
44 99 2
44 100 3
45 46 4
45 47 5
45 48 1
45 49 5
45 50 4
45 51 5
45 52 2
45 53 3
45 54 1
45 55 5
45 56 4
45 57 1
45 58 2
45 59 3
45 60 5
45 61 2
45 62 5
45 63 5
45 64 1
45 65 3
45 66 1
45 67 4
45 68 5
45 69 5
45 70 1
45 71 1
45 72 5
45 73 3
45 74 5
45 75 3
45 76 1
45 77 1
45 78 4
45 79 4
45 80 3
45 81 4
45 82 4
45 83 3
45 84 1
45 85 5
45 86 4
45 87 2
45 88 4
45 89 5
45 90 5
45 91 1
45 92 4
45 93 2
45 94 3
45 95 4
45 96 4
45 97 2
45 98 4
45 99 4
45 100 5
46 47 1
46 48 4
46 49 2
46 50 4
46 51 1
46 52 4
46 53 1
46 54 2
46 55 2
46 56 5
46 57 5
46 58 2
46 59 3
46 60 1
46 61 3
46 62 3
46 63 3
46 64 1
46 65 2
46 66 3
46 67 3
46 68 4
46 69 5
46 70 2
46 71 2
46 72 4
46 73 1
46 74 3
46 75 5
46 76 1
46 77 1
46 78 3
46 79 2
46 80 1
46 81 2
46 82 4
46 83 4
46 84 4
46 85 5
46 86 2
46 87 3
46 88 3
46 89 2
46 90 4
46 91 3
46 92 4
46 93 2
46 94 3
46 95 3
46 96 2
46 97 5
46 98 5
46 99 1
46 100 2
47 48 4
47 49 4
47 50 4
47 51 5
47 52 5
47 53 4
47 54 2
47 55 4
47 56 1
47 57 1
47 58 5
47 59 3
47 60 1
47 61 1
47 62 2
47 63 5
47 64 5
47 65 1
47 66 4
47 67 2
47 68 4
47 69 3
47 70 1
47 71 1
47 72 3
47 73 3
47 74 2
47 75 1
47 76 1
47 77 3
47 78 3
47 79 3
47 80 1
47 81 3
47 82 3
47 83 4
47 84 3
47 85 4
47 86 4
47 87 1
47 88 4
47 89 3
47 90 1
47 91 1
47 92 4
47 93 1
47 94 1
47 95 2
47 96 2
47 97 5
47 98 1
47 99 4
47 100 2
48 49 5
48 50 3
48 51 4
48 52 4
48 53 1
48 54 2
48 55 3
48 56 1
48 57 3
48 58 3
48 59 3
48 60 2
48 61 3
48 62 2
48 63 1
48 64 5
48 65 2
48 66 4
48 67 1
48 68 1
48 69 4
48 70 4
48 71 2
48 72 3
48 73 2
48 74 4
48 75 1
48 76 4
48 77 4
48 78 2
48 79 5
48 80 2
48 81 2
48 82 5
48 83 4
48 84 1
48 85 4
48 86 1
48 87 1
48 88 4
48 89 4
48 90 4
48 91 2
48 92 3
48 93 5
48 94 4
48 95 2
48 96 2
48 97 1
48 98 5
48 99 2
48 100 4
49 50 1
49 51 5
49 52 2
49 53 1
49 54 3
49 55 1
49 56 5
49 57 5
49 58 5
49 59 3
49 60 1
49 61 1
49 62 3
49 63 1
49 64 4
49 65 1
49 66 3
49 67 5
49 68 3
49 69 4
49 70 1
49 71 5
49 72 2
49 73 4
49 74 1
49 75 3
49 76 5
49 77 3
49 78 1
49 79 4
49 80 2
49 81 4
49 82 5
49 83 2
49 84 1
49 85 1
49 86 4
49 87 1
49 88 4
49 89 4
49 90 1
49 91 2
49 92 4
49 93 5
49 94 2
49 95 2
49 96 5
49 97 3
49 98 4
49 99 2
49 100 3
50 51 2
50 52 2
50 53 2
50 54 4
50 55 4
50 56 2
50 57 5
50 58 2
50 59 4
50 60 5
50 61 1
50 62 3
50 63 4
50 64 1
50 65 4
50 66 5
50 67 2
50 68 5
50 69 5
50 70 1
50 71 1
50 72 3
50 73 5
50 74 1
50 75 3
50 76 4
50 77 4
50 78 5
50 79 1
50 80 4
50 81 4
50 82 3
50 83 4
50 84 3
50 85 5
50 86 3
50 87 3
50 88 3
50 89 3
50 90 3
50 91 1
50 92 3
50 93 2
50 94 2
50 95 1
50 96 5
50 97 1
50 98 1
50 99 2
50 100 3
51 52 4
51 53 4
51 54 5
51 55 5
51 56 4
51 57 3
51 58 2
51 59 4
51 60 5
51 61 5
51 62 4
51 63 2
51 64 2
51 65 4
51 66 1
51 67 5
51 68 1
51 69 1
51 70 5
51 71 5
51 72 4
51 73 3
51 74 5
51 75 4
51 76 2
51 77 1
51 78 5
51 79 4
51 80 1
51 81 3
51 82 3
51 83 3
51 84 2
51 85 3
51 86 1
51 87 4
51 88 1
51 89 1
51 90 5
51 91 1
51 92 4
51 93 3
51 94 3
51 95 3
51 96 3
51 97 5
51 98 4
51 99 5
51 100 5
52 53 1
52 54 4
52 55 3
52 56 1
52 57 4
52 58 2
52 59 4
52 60 1
52 61 2
52 62 5
52 63 2
52 64 5
52 65 2
52 66 4
52 67 5
52 68 1
52 69 4
52 70 5
52 71 2
52 72 4
52 73 1
52 74 4
52 75 2
52 76 5
52 77 1
52 78 5
52 79 1
52 80 4
52 81 1
52 82 2
52 83 1
52 84 3
52 85 3
52 86 5
52 87 2
52 88 2
52 89 3
52 90 1
52 91 2
52 92 3
52 93 1
52 94 2
52 95 1
52 96 2
52 97 4
52 98 1
52 99 3
52 100 4
53 54 5
53 55 4
53 56 5
53 57 5
53 58 5
53 59 1
53 60 2
53 61 5
53 62 4
53 63 1
53 64 2
53 65 4
53 66 1
53 67 3
53 68 5
53 69 5
53 70 2
53 71 1
53 72 4
53 73 3
53 74 4
53 75 4
53 76 3
53 77 1
53 78 1
53 79 5
53 80 2
53 81 5
53 82 4
53 83 1
53 84 5
53 85 1
53 86 5
53 87 1
53 88 5
53 89 5
53 90 1
53 91 1
53 92 1
53 93 4
53 94 4
53 95 3
53 96 1
53 97 4
53 98 5
53 99 2
53 100 1
54 55 2
54 56 2
54 57 5
54 58 5
54 59 4
54 60 4
54 61 5
54 62 1
54 63 5
54 64 2
54 65 5
54 66 1
54 67 5
54 68 1
54 69 1
54 70 1
54 71 4
54 72 5
54 73 3
54 74 3
54 75 5
54 76 5
54 77 2
54 78 2
54 79 3
54 80 5
54 81 4
54 82 3
54 83 5
54 84 2
54 85 3
54 86 4
54 87 5
54 88 3
54 89 5
54 90 4
54 91 2
54 92 4
54 93 2
54 94 3
54 95 4
54 96 5
54 97 4
54 98 4
54 99 5
54 100 5
55 56 1
55 57 2
55 58 2
55 59 1
55 60 1
55 61 3
55 62 2
55 63 1
55 64 3
55 65 3
55 66 5
55 67 1
55 68 5
55 69 1
55 70 1
55 71 3
55 72 1
55 73 2
55 74 3
55 75 3
55 76 2
55 77 2
55 78 2
55 79 2
55 80 4
55 81 1
55 82 3
55 83 5
55 84 1
55 85 3
55 86 5
55 87 1
55 88 5
55 89 1
55 90 1
55 91 1
55 92 1
55 93 3
55 94 4
55 95 2
55 96 3
55 97 4
55 98 3
55 99 3
55 100 2
56 57 4
56 58 5
56 59 5
56 60 1
56 61 4
56 62 2
56 63 2
56 64 1
56 65 3
56 66 2
56 67 5
56 68 4
56 69 3
56 70 5
56 71 2
56 72 4
56 73 4
56 74 3
56 75 3
56 76 1
56 77 2
56 78 4
56 79 1
56 80 2
56 81 5
56 82 3
56 83 5
56 84 3
56 85 5
56 86 2
56 87 5
56 88 2
56 89 1
56 90 3
56 91 2
56 92 4
56 93 3
56 94 1
56 95 3
56 96 3
56 97 5
56 98 1
56 99 5
56 100 2
57 58 1
57 59 4
57 60 3
57 61 5
57 62 1
57 63 3
57 64 1
57 65 2
57 66 1
57 67 5
57 68 2
57 69 4
57 70 4
57 71 1
57 72 1
57 73 3
57 74 3
57 75 2
57 76 5
57 77 5
57 78 4
57 79 1
57 80 5
57 81 1
57 82 4
57 83 4
57 84 5
57 85 2
57 86 3
57 87 3
57 88 5
57 89 4
57 90 1
57 91 5
57 92 5
57 93 4
57 94 1
57 95 5
57 96 3
57 97 5
57 98 3
57 99 5
57 100 4
58 59 4
58 60 1
58 61 4
58 62 4
58 63 2
58 64 5
58 65 1
58 66 4
58 67 3
58 68 3
58 69 4
58 70 3
58 71 5
58 72 2
58 73 2
58 74 2
58 75 2
58 76 4
58 77 5
58 78 3
58 79 4
58 80 2
58 81 1
58 82 5
58 83 3
58 84 4
58 85 5
58 86 3
58 87 3
58 88 4
58 89 3
58 90 2
58 91 2
58 92 2
58 93 1
58 94 4
58 95 2
58 96 3
58 97 3
58 98 2
58 99 3
58 100 3
59 60 3
59 61 2
59 62 4
59 63 2
59 64 1
59 65 1
59 66 2
59 67 4
59 68 3
59 69 5
59 70 1
59 71 1
59 72 1
59 73 4
59 74 3
59 75 5
59 76 5
59 77 1
59 78 4
59 79 5
59 80 5
59 81 3
59 82 3
59 83 4
59 84 2
59 85 5
59 86 4
59 87 1
59 88 3
59 89 5
59 90 5
59 91 3
59 92 4
59 93 2
59 94 1
59 95 5
59 96 1
59 97 2
59 98 4
59 99 5
59 100 5
60 61 2
60 62 3
60 63 1
60 64 2
60 65 4
60 66 2
60 67 1
60 68 3
60 69 1
60 70 2
60 71 2
60 72 1
60 73 3
60 74 1
60 75 5
60 76 1
60 77 2
60 78 5
60 79 5
60 80 1
60 81 4
60 82 2
60 83 5
60 84 4
60 85 2
60 86 5
60 87 2
60 88 1
60 89 4
60 90 1
60 91 5
60 92 3
60 93 3
60 94 4
60 95 2
60 96 1
60 97 2
60 98 1
60 99 5
60 100 2
61 62 2
61 63 4
61 64 4
61 65 4
61 66 1
61 67 1
61 68 1
61 69 1
61 70 1
61 71 2
61 72 5
61 73 5
61 74 5
61 75 4
61 76 3
61 77 1
61 78 5
61 79 5
61 80 4
61 81 3
61 82 4
61 83 2
61 84 2
61 85 5
61 86 4
61 87 1
61 88 3
61 89 5
61 90 5
61 91 3
61 92 1
61 93 5
61 94 5
61 95 5
61 96 1
61 97 5
61 98 2
61 99 2
61 100 3
62 63 1
62 64 3
62 65 5
62 66 2
62 67 4
62 68 2
62 69 2
62 70 5
62 71 3
62 72 5
62 73 3
62 74 3
62 75 4
62 76 2
62 77 3
62 78 3
62 79 4
62 80 3
62 81 5
62 82 3
62 83 5
62 84 1
62 85 2
62 86 1
62 87 5
62 88 5
62 89 2
62 90 4
62 91 1
62 92 4
62 93 2
62 94 5
62 95 3
62 96 3
62 97 3
62 98 3
62 99 2
62 100 1
63 64 3
63 65 1
63 66 3
63 67 5
63 68 5
63 69 2
63 70 4
63 71 5
63 72 3
63 73 1
63 74 1
63 75 3
63 76 5
63 77 4
63 78 3
63 79 1
63 80 5
63 81 2
63 82 2
63 83 5
63 84 4
63 85 3
63 86 4
63 87 5
63 88 4
63 89 5
63 90 1
63 91 5
63 92 3
63 93 5
63 94 5
63 95 3
63 96 2
63 97 5
63 98 4
63 99 5
63 100 2
64 65 5
64 66 1
64 67 5
64 68 5
64 69 4
64 70 2
64 71 4
64 72 4
64 73 3
64 74 3
64 75 2
64 76 1
64 77 1
64 78 4
64 79 3
64 80 3
64 81 1
64 82 4
64 83 4
64 84 4
64 85 3
64 86 1
64 87 1
64 88 5
64 89 3
64 90 5
64 91 2
64 92 5
64 93 3
64 94 2
64 95 2
64 96 2
64 97 1
64 98 4
64 99 1
64 100 5
65 66 2
65 67 1
65 68 2
65 69 1
65 70 3
65 71 4
65 72 4
65 73 5
65 74 1
65 75 4
65 76 5
65 77 4
65 78 1
65 79 1
65 80 5
65 81 3
65 82 1
65 83 5
65 84 2
65 85 4
65 86 4
65 87 3
65 88 1
65 89 5
65 90 3
65 91 4
65 92 5
65 93 1
65 94 4
65 95 2
65 96 1
65 97 5
65 98 4
65 99 1
65 100 3
66 67 4
66 68 1
66 69 3
66 70 4
66 71 3
66 72 5
66 73 4
66 74 1
66 75 2
66 76 1
66 77 3
66 78 3
66 79 1
66 80 5
66 81 2
66 82 5
66 83 4
66 84 3
66 85 4
66 86 1
66 87 3
66 88 4
66 89 5
66 90 2
66 91 5
66 92 1
66 93 4
66 94 5
66 95 2
66 96 1
66 97 1
66 98 5
66 99 4
66 100 5
67 68 4
67 69 1
67 70 3
67 71 1
67 72 3
67 73 2
67 74 3
67 75 1
67 76 1
67 77 1
67 78 3
67 79 3
67 80 1
67 81 1
67 82 5
67 83 2
67 84 2
67 85 2
67 86 4
67 87 5
67 88 2
67 89 5
67 90 4
67 91 2
67 92 2
67 93 1
67 94 4
67 95 4
67 96 5
67 97 5
67 98 4
67 99 4
67 100 1
68 69 2
68 70 1
68 71 2
68 72 3
68 73 2
68 74 5
68 75 4
68 76 4
68 77 4
68 78 2
68 79 2
68 80 4
68 81 5
68 82 3
68 83 3
68 84 4
68 85 5
68 86 5
68 87 5
68 88 2
68 89 3
68 90 3
68 91 1
68 92 4
68 93 3
68 94 4
68 95 1
68 96 5
68 97 4
68 98 3
68 99 4
68 100 5
69 70 5
69 71 5
69 72 3
69 73 1
69 74 2
69 75 1
69 76 3
69 77 5
69 78 2
69 79 2
69 80 1
69 81 4
69 82 4
69 83 1
69 84 1
69 85 2
69 86 4
69 87 2
69 88 2
69 89 3
69 90 1
69 91 3
69 92 5
69 93 3
69 94 2
69 95 3
69 96 3
69 97 2
69 98 5
69 99 3
69 100 1
70 71 3
70 72 3
70 73 2
70 74 5
70 75 1
70 76 5
70 77 1
70 78 2
70 79 5
70 80 3
70 81 1
70 82 2
70 83 2
70 84 4
70 85 2
70 86 1
70 87 4
70 88 5
70 89 1
70 90 1
70 91 3
70 92 4
70 93 4
70 94 1
70 95 2
70 96 4
70 97 4
70 98 2
70 99 2
70 100 4
71 72 1
71 73 4
71 74 4
71 75 3
71 76 2
71 77 2
71 78 4
71 79 4
71 80 1
71 81 1
71 82 2
71 83 2
71 84 5
71 85 3
71 86 2
71 87 2
71 88 1
71 89 5
71 90 1
71 91 4
71 92 1
71 93 4
71 94 4
71 95 3
71 96 2
71 97 1
71 98 4
71 99 2
71 100 4
72 73 4
72 74 3
72 75 4
72 76 3
72 77 1
72 78 2
72 79 3
72 80 3
72 81 4
72 82 5
72 83 2
72 84 5
72 85 5
72 86 1
72 87 5
72 88 5
72 89 3
72 90 4
72 91 2
72 92 3
72 93 2
72 94 1
72 95 3
72 96 2
72 97 1
72 98 4
72 99 5
72 100 4
73 74 2
73 75 4
73 76 2
73 77 2
73 78 3
73 79 5
73 80 2
73 81 1
73 82 4
73 83 2
73 84 3
73 85 4
73 86 5
73 87 1
73 88 4
73 89 1
73 90 5
73 91 4
73 92 5
73 93 1
73 94 3
73 95 5
73 96 4
73 97 1
73 98 3
73 99 1
73 100 3
74 75 2
74 76 3
74 77 4
74 78 2
74 79 5
74 80 4
74 81 1
74 82 3
74 83 1
74 84 1
74 85 1
74 86 5
74 87 1
74 88 5
74 89 2
74 90 1
74 91 1
74 92 1
74 93 3
74 94 4
74 95 2
74 96 3
74 97 2
74 98 3
74 99 5
74 100 4
75 76 1
75 77 3
75 78 1
75 79 4
75 80 4
75 81 2
75 82 2
75 83 3
75 84 4
75 85 5
75 86 4
75 87 1
75 88 4
75 89 2
75 90 1
75 91 5
75 92 2
75 93 4
75 94 1
75 95 3
75 96 5
75 97 3
75 98 3
75 99 5
75 100 1
76 77 5
76 78 4
76 79 3
76 80 5
76 81 5
76 82 2
76 83 2
76 84 2
76 85 4
76 86 2
76 87 4
76 88 2
76 89 3
76 90 4
76 91 2
76 92 2
76 93 4
76 94 1
76 95 1
76 96 1
76 97 4
76 98 5
76 99 3
76 100 4
77 78 4
77 79 4
77 80 3
77 81 5
77 82 1
77 83 2
77 84 3
77 85 3
77 86 1
77 87 4
77 88 4
77 89 3
77 90 2
77 91 1
77 92 1
77 93 1
77 94 1
77 95 4
77 96 4
77 97 2
77 98 1
77 99 4
77 100 4
78 79 1
78 80 5
78 81 3
78 82 4
78 83 2
78 84 1
78 85 3
78 86 3
78 87 3
78 88 5
78 89 2
78 90 2
78 91 2
78 92 2
78 93 2
78 94 4
78 95 1
78 96 5
78 97 4
78 98 3
78 99 5
78 100 1
79 80 4
79 81 2
79 82 2
79 83 4
79 84 2
79 85 4
79 86 1
79 87 5
79 88 2
79 89 3
79 90 3
79 91 3
79 92 2
79 93 4
79 94 2
79 95 4
79 96 1
79 97 5
79 98 1
79 99 4
79 100 1
80 81 4
80 82 1
80 83 2
80 84 2
80 85 1
80 86 1
80 87 5
80 88 5
80 89 3
80 90 2
80 91 2
80 92 5
80 93 5
80 94 2
80 95 4
80 96 1
80 97 1
80 98 1
80 99 4
80 100 1
81 82 2
81 83 5
81 84 2
81 85 2
81 86 1
81 87 3
81 88 2
81 89 5
81 90 4
81 91 3
81 92 5
81 93 2
81 94 2
81 95 2
81 96 2
81 97 5
81 98 4
81 99 1
81 100 3
82 83 3
82 84 1
82 85 1
82 86 5
82 87 4
82 88 2
82 89 3
82 90 5
82 91 1
82 92 3
82 93 1
82 94 2
82 95 1
82 96 5
82 97 1
82 98 2
82 99 4
82 100 1
83 84 4
83 85 4
83 86 5
83 87 2
83 88 4
83 89 5
83 90 4
83 91 5
83 92 4
83 93 5
83 94 5
83 95 1
83 96 5
83 97 2
83 98 3
83 99 1
83 100 3
84 85 4
84 86 5
84 87 3
84 88 4
84 89 3
84 90 1
84 91 4
84 92 4
84 93 3
84 94 5
84 95 5
84 96 2
84 97 5
84 98 2
84 99 5
84 100 2
85 86 2
85 87 1
85 88 2
85 89 4
85 90 5
85 91 4
85 92 1
85 93 3
85 94 4
85 95 2
85 96 5
85 97 3
85 98 1
85 99 4
85 100 3
86 87 5
86 88 1
86 89 5
86 90 1
86 91 1
86 92 4
86 93 3
86 94 2
86 95 5
86 96 2
86 97 3
86 98 1
86 99 2
86 100 5
87 88 3
87 89 4
87 90 2
87 91 1
87 92 5
87 93 3
87 94 3
87 95 4
87 96 2
87 97 1
87 98 3
87 99 1
87 100 4
88 89 4
88 90 4
88 91 2
88 92 4
88 93 4
88 94 5
88 95 2
88 96 5
88 97 1
88 98 2
88 99 5
88 100 1
89 90 2
89 91 5
89 92 2
89 93 3
89 94 2
89 95 3
89 96 5
89 97 3
89 98 5
89 99 4
89 100 4
90 91 1
90 92 3
90 93 3
90 94 4
90 95 1
90 96 5
90 97 4
90 98 5
90 99 2
90 100 3
91 92 1
91 93 4
91 94 3
91 95 4
91 96 4
91 97 3
91 98 3
91 99 5
91 100 1
92 93 2
92 94 4
92 95 5
92 96 3
92 97 1
92 98 2
92 99 1
92 100 4
93 94 1
93 95 5
93 96 4
93 97 1
93 98 3
93 99 4
93 100 1
94 95 5
94 96 5
94 97 1
94 98 2
94 99 1
94 100 1
95 96 1
95 97 1
95 98 2
95 99 5
95 100 3
96 97 2
96 98 1
96 99 4
96 100 5
97 98 2
97 99 5
97 100 1
98 99 1
98 100 5
99 100 5
